p cnf 70 140
4 9 14 0
-4 -9 0
-4 -14 0
-9 -14 0
37 19 28 0
-37 -19 0
-37 -28 0
-19 -28 0
38 21 30 0
-38 -21 0
-38 -30 0
-21 -30 0
39 23 32 0
-39 -23 0
-39 -32 0
-23 -32 0
-4 -67 -46 0
-4 -67 47 0
-9 -67 -47 0
-9 -67 48 0
-14 -67 -48 0
-14 -67 46 0
-4 -68 -46 0
-4 -68 48 0
-9 -68 -47 0
-9 -68 46 0
-14 -68 -48 0
-14 -68 47 0
-4 -19 -69 55 0
-9 -21 -69 56 0
-14 -23 -69 57 0
-4 -70 49 0
-9 -70 50 0
-14 -70 51 0
-1 43 0
1 -43 0
-2 44 0
2 -44 0
-3 45 0
3 -45 0
-4 -67 5 0
-5 4 0
-5 67 0
-4 -68 6 0
-6 4 0
-6 68 0
5 6 -4 46 0
-14 -67 7 0
-7 14 0
-7 67 0
-9 -68 8 0
-8 9 0
-8 68 0
7 8 4 -46 0
-9 -67 10 0
-10 9 0
-10 67 0
-9 -68 11 0
-11 9 0
-11 68 0
10 11 -9 47 0
-4 -67 12 0
-12 4 0
-12 67 0
-14 -68 13 0
-13 14 0
-13 68 0
12 13 9 -47 0
-14 -67 15 0
-15 14 0
-15 67 0
-14 -68 16 0
-16 14 0
-16 68 0
15 16 -14 48 0
-9 -67 17 0
-17 9 0
-17 67 0
-4 -68 18 0
-18 4 0
-18 68 0
17 18 14 -48 0
-19 49 0
-4 -70 20 0
-20 4 0
-20 70 0
20 19 -49 0
-21 50 0
-9 -70 22 0
-22 9 0
-22 70 0
22 21 -50 0
-23 51 0
-14 -70 24 0
-24 14 0
-24 70 0
24 23 -51 0
-25 52 0
25 -52 0
-26 53 0
26 -53 0
-27 54 0
27 -54 0
-28 55 0
-4 -19 -69 29 0
-29 4 0
-29 19 0
-29 69 0
29 28 -55 0
-30 56 0
-9 -21 -69 31 0
-31 9 0
-31 21 0
-31 69 0
31 30 -56 0
-32 57 0
-14 -23 -69 33 0
-33 14 0
-33 23 0
-33 69 0
33 32 -57 0
-34 58 0
34 -58 0
-35 59 0
35 -59 0
-36 60 0
36 -60 0
-37 61 0
37 -61 0
-38 62 0
38 -62 0
-39 63 0
39 -63 0
-40 64 0
40 -64 0
-41 65 0
41 -65 0
-42 66 0
42 -66 0
-67 -68 0
